# Solution for model JobShopModel
# Objective value = 43
y[0,0,3] 1
y[0,0,4] 0
y[0,1,0] 1
y[0,1,2] 0
y[0,2,3] 0
y[0,2,4] 1
y[1,0,2] 0
y[1,0,3] 1
y[1,1,2] 1
y[1,1,3] 0
y[1,2,1] 0
y[1,2,4] 1
y[2,0,1] 1
y[2,0,4] 0
y[2,1,1] 1
y[2,1,2] 0
y[2,2,0] 1
y[2,2,2] 0
x[0,0,0,0] 0
x[0,0,0,1] 0
x[0,0,0,2] 0
x[0,0,1,0] 0
x[0,0,1,1] 0
x[0,0,1,2] 0
x[0,0,2,0] 0
x[0,0,2,1] 0
x[0,0,2,2] 0
x[0,1,0,0] 0
x[0,1,0,1] 0
x[0,1,0,2] 0
x[0,1,1,0] 0
x[0,1,1,1] 0
x[0,1,1,2] 0
x[0,1,2,0] 0
x[0,1,2,1] 0
x[0,1,2,2] 0
x[0,2,0,0] 0
x[0,2,0,1] 0
x[0,2,0,2] 0
x[0,2,1,0] 0
x[0,2,1,1] 0
x[0,2,1,2] 0
x[0,2,2,0] 0
x[0,2,2,1] 0
x[0,2,2,2] 0
x[1,0,0,0] 0
x[1,0,0,1] 0
x[1,0,0,2] 0
x[1,0,1,0] 0
x[1,0,1,1] 0
x[1,0,1,2] 0
x[1,0,2,0] 0
x[1,0,2,1] 0
x[1,0,2,2] 0
x[1,1,0,0] 0
x[1,1,0,1] 0
x[1,1,0,2] 0
x[1,1,1,0] 0
x[1,1,1,1] 0
x[1,1,1,2] 0
x[1,1,2,0] 0
x[1,1,2,1] 0
x[1,1,2,2] 0
x[1,2,0,0] 0
x[1,2,0,1] 0
x[1,2,0,2] 0
x[1,2,1,0] 0
x[1,2,1,1] 0
x[1,2,1,2] 0
x[1,2,2,0] 0
x[1,2,2,1] 0
x[1,2,2,2] 0
x[2,0,0,0] 0
x[2,0,0,1] 0
x[2,0,0,2] 0
x[2,0,1,0] 0
x[2,0,1,1] 0
x[2,0,1,2] 0
x[2,0,2,0] 0
x[2,0,2,1] 1
x[2,0,2,2] 0
x[2,1,0,0] 0
x[2,1,0,1] 0
x[2,1,0,2] 0
x[2,1,1,0] 0
x[2,1,1,1] 0
x[2,1,1,2] 0
x[2,1,2,0] 0
x[2,1,2,1] 0
x[2,1,2,2] 0
x[2,2,0,0] 0
x[2,2,0,1] 0
x[2,2,0,2] 0
x[2,2,1,0] 0
x[2,2,1,1] 0
x[2,2,1,2] 0
x[2,2,2,0] 0
x[2,2,2,1] 0
x[2,2,2,2] 0
s[0,0,3] 4.9999999999997744e+00
s[0,0,4] 0
s[0,1,0] 9.9999999999997158e-01
s[0,1,2] 0
s[0,2,3] 0
s[0,2,4] 9.9999999999997158e-01
s[1,0,2] 0
s[1,0,3] 1.5999999999999343e+01
s[1,1,2] 1.1999999999999535e+01
s[1,1,3] 0
s[1,2,1] 0
s[1,2,4] 9
s[2,0,1] 1.2999999999999716e+01
s[2,0,4] 0
s[2,1,1] 9.9999999999997158e-01
s[2,1,2] 0
s[2,2,0] 10.9999999999999
s[2,2,2] 0
Z_FO 43
